c A SAT instance generated from a 5-CNF formula that had 15 clauses and 5 variables
p cnf 5 15
-2 1 -5 -4 3 0
4 2 -1 5 -3 0
-1 5 4 3 -2 0
-2 -5 -4 1 -3 0
1 -5 4 2 -3 0
2 1 5 -4 3 0
1 2 -3 -4 5 0
3 -5 1 -4 -2 0
3 2 -4 -5 -1 0
5 1 2 3 4 0
1 -5 -3 4 -2 0
2 4 -5 -3 -1 0
3 2 -4 -5 -1 0
-2 1 5 3 4 0
-3 -1 -2 4 5 0
